sat
((rprim_1_1 15))
((rprim_1_2 1))
((rprim_1_3 17))
((rprim_1_4 9))
((rprim_1_5 21))
((rprim_1_6 17))
((rprim_1_7 1))
((rprim_1_8 15))
((rprim_1_9 11))
((rprim_1_10 1))
((rprim_1_11 11))
((rprim_1_12 17))
((rprim_1_13 1))
((rprim_1_14 1))
((rprim_1_15 3))
((rprim_1_16 21))
((rprim_1_17 1))
((rprim_1_18 20))
((rprim_1_19 21))
((rprim_1_20 21))
((rprim_1_21 1))
((rprim_1_22 18))
((rprim_1_23 1))
((rprim_1_24 7))
((rprim_1_25 20))
((rprim_1_26 15))
((rprim_1_27 1))
((rprim_1_28 18))
((rprim_1_29 19))
((rprim_1_30 1))
((rprim_1_31 1))
((rprim_1_32 14))
((rprim_1_33 14))
((rprim_1_34 1))
((rprim_1_35 1))
((rprim_1_36 15))
((rprim_1_37 12))
((rprim_1_38 1))
((rprim_1_39 1))
((rprim_2_1 16))
((rprim_2_2 20))
((rprim_2_3 4))
((rprim_2_4 20))
((rprim_2_5 20))
((rprim_2_6 1))
((rprim_2_7 17))
((rprim_2_8 18))
((rprim_2_9 1))
((rprim_2_10 14))
((rprim_2_11 15))
((rprim_2_12 1))
((rprim_2_13 16))
((rprim_2_14 20))
((rprim_2_15 1))
((rprim_2_16 1))
((rprim_2_17 14))
((rprim_2_18 19))
((rprim_2_19 19))
((rprim_2_20 1))
((rprim_2_21 16))
((rprim_2_22 5))
((rprim_2_23 1))
((rprim_2_24 1))
((rprim_2_25 17))
((rprim_2_26 21))
((rprim_2_27 16))
((rprim_2_28 2))
((rprim_2_29 17))
((rprim_2_30 1))
((rprim_2_31 1))
((rprim_2_32 18))
((rprim_2_33 1))
((rprim_2_34 1))
((rprim_2_35 14))
((rprim_2_36 10))
((rprim_2_37 14))
((rprim_2_38 1))
((rprim_2_39 1))
((rcost_1_1 4.0))
((rcost_1_2 0.0))
((rcost_1_3 4.0))
((rcost_1_4 3.0))
((rcost_1_5 4.0))
((rcost_1_6 4.0))
((rcost_1_7 0.0))
((rcost_1_8 4.0))
((rcost_1_9 3.0))
((rcost_1_10 0.0))
((rcost_1_11 3.0))
((rcost_1_12 4.0))
((rcost_1_13 0.0))
((rcost_1_14 0.0))
((rcost_1_15 2.0))
((rcost_1_16 4.0))
((rcost_1_17 0.0))
((rcost_1_18 4.0))
((rcost_1_19 4.0))
((rcost_1_20 4.0))
((rcost_1_21 0.0))
((rcost_1_22 4.0))
((rcost_1_23 0.0))
((rcost_1_24 3.0))
((rcost_1_25 4.0))
((rcost_1_26 4.0))
((rcost_1_27 0.0))
((rcost_1_28 4.0))
((rcost_1_29 4.0))
((rcost_1_30 0.0))
((rcost_1_31 0.0))
((rcost_1_32 4.0))
((rcost_1_33 4.0))
((rcost_1_34 0.0))
((rcost_1_35 0.0))
((rcost_1_36 4.0))
((rcost_1_37 3.0))
((rcost_1_38 0.0))
((rcost_1_39 0.0))
((rcost_2_1 4.0))
((rcost_2_2 4.0))
((rcost_2_3 2.0))
((rcost_2_4 4.0))
((rcost_2_5 4.0))
((rcost_2_6 0.0))
((rcost_2_7 4.0))
((rcost_2_8 4.0))
((rcost_2_9 0.0))
((rcost_2_10 4.0))
((rcost_2_11 4.0))
((rcost_2_12 0.0))
((rcost_2_13 4.0))
((rcost_2_14 4.0))
((rcost_2_15 0.0))
((rcost_2_16 0.0))
((rcost_2_17 4.0))
((rcost_2_18 4.0))
((rcost_2_19 4.0))
((rcost_2_20 0.0))
((rcost_2_21 4.0))
((rcost_2_22 2.0))
((rcost_2_23 0.0))
((rcost_2_24 0.0))
((rcost_2_25 4.0))
((rcost_2_26 4.0))
((rcost_2_27 4.0))
((rcost_2_28 2.0))
((rcost_2_29 4.0))
((rcost_2_30 0.0))
((rcost_2_31 0.0))
((rcost_2_32 4.0))
((rcost_2_33 0.0))
((rcost_2_34 0.0))
((rcost_2_35 4.0))
((rcost_2_36 3.0))
((rcost_2_37 4.0))
((rcost_2_38 0.0))
((rcost_2_39 0.0))
((rx_1_1 7))
((ry_1_1 16))
((rx_1_2 5))
((ry_1_2 18))
((rx_1_3 5))
((ry_1_3 18))
((rx_1_4 7))
((ry_1_4 16))
((rx_1_5 8))
((ry_1_5 15))
((rx_1_6 8))
((ry_1_6 12))
((rx_1_7 10))
((ry_1_7 10))
((rx_1_8 10))
((ry_1_8 10))
((rx_1_9 8))
((ry_1_9 12))
((rx_1_10 8))
((ry_1_10 14))
((rx_1_11 8))
((ry_1_11 14))
((rx_1_12 8))
((ry_1_12 16))
((rx_1_13 10))
((ry_1_13 14))
((rx_1_14 10))
((ry_1_14 14))
((rx_1_15 10))
((ry_1_15 14))
((rx_1_16 10))
((ry_1_16 13))
((rx_1_17 10))
((ry_1_17 10))
((rx_1_18 10))
((ry_1_18 10))
((rx_1_19 7))
((ry_1_19 10))
((rx_1_20 7))
((ry_1_20 7))
((rx_1_21 7))
((ry_1_21 4))
((rx_1_22 7))
((ry_1_22 4))
((rx_1_23 10))
((ry_1_23 4))
((rx_1_24 10))
((ry_1_24 4))
((rx_1_25 9))
((ry_1_25 5))
((rx_1_26 6))
((ry_1_26 5))
((rx_1_27 4))
((ry_1_27 7))
((rx_1_28 4))
((ry_1_28 7))
((rx_1_29 7))
((ry_1_29 7))
((rx_1_30 7))
((ry_1_30 10))
((rx_1_31 7))
((ry_1_31 10))
((rx_1_32 7))
((ry_1_32 10))
((rx_1_33 9))
((ry_1_33 12))
((rx_1_34 11))
((ry_1_34 14))
((rx_1_35 11))
((ry_1_35 14))
((rx_1_36 11))
((ry_1_36 14))
((rx_1_37 9))
((ry_1_37 16))
((rx_1_38 7))
((ry_1_38 16))
((rx_1_39 7))
((ry_1_39 16))
((rx_1_40 7))
((ry_1_40 16))
((rx_2_1 17))
((ry_2_1 8))
((rx_2_2 15))
((ry_2_2 6))
((rx_2_3 12))
((ry_2_3 6))
((rx_2_4 11))
((ry_2_4 6))
((rx_2_5 8))
((ry_2_5 6))
((rx_2_6 5))
((ry_2_6 6))
((rx_2_7 5))
((ry_2_7 6))
((rx_2_8 7))
((ry_2_8 4))
((rx_2_9 10))
((ry_2_9 4))
((rx_2_10 10))
((ry_2_10 4))
((rx_2_11 12))
((ry_2_11 6))
((rx_2_12 10))
((ry_2_12 8))
((rx_2_13 10))
((ry_2_13 8))
((rx_2_14 8))
((ry_2_14 6))
((rx_2_15 5))
((ry_2_15 6))
((rx_2_16 5))
((ry_2_16 6))
((rx_2_17 5))
((ry_2_17 6))
((rx_2_18 7))
((ry_2_18 8))
((rx_2_19 7))
((ry_2_19 11))
((rx_2_20 7))
((ry_2_20 14))
((rx_2_21 7))
((ry_2_21 14))
((rx_2_22 5))
((ry_2_22 12))
((rx_2_23 5))
((ry_2_23 13))
((rx_2_24 5))
((ry_2_24 13))
((rx_2_25 5))
((ry_2_25 13))
((rx_2_26 7))
((ry_2_26 11))
((rx_2_27 7))
((ry_2_27 8))
((rx_2_28 5))
((ry_2_28 6))
((rx_2_29 6))
((ry_2_29 6))
((rx_2_30 8))
((ry_2_30 4))
((rx_2_31 8))
((ry_2_31 4))
((rx_2_32 8))
((ry_2_32 4))
((rx_2_33 11))
((ry_2_33 4))
((rx_2_34 11))
((ry_2_34 4))
((rx_2_35 11))
((ry_2_35 4))
((rx_2_36 13))
((ry_2_36 6))
((rx_2_37 15))
((ry_2_37 6))
((rx_2_38 17))
((ry_2_38 8))
((rx_2_39 17))
((ry_2_39 8))
((rx_2_40 17))
((ry_2_40 8))
((rechassigned_1_1 0))
((rechassigned_1_2 0))
((rechassigned_1_3 0))
((rechassigned_1_4 0))
((rechassigned_1_5 0))
((rechassigned_1_6 2))
((rechassigned_1_7 0))
((rechassigned_1_8 0))
((rechassigned_1_9 0))
((rechassigned_1_10 0))
((rechassigned_1_11 0))
((rechassigned_1_12 0))
((rechassigned_1_13 0))
((rechassigned_1_14 0))
((rechassigned_1_15 2))
((rechassigned_1_16 2))
((rechassigned_1_17 0))
((rechassigned_1_18 0))
((rechassigned_1_19 0))
((rechassigned_1_20 0))
((rechassigned_1_21 1))
((rechassigned_1_22 0))
((rechassigned_1_23 0))
((rechassigned_1_24 0))
((rechassigned_1_25 0))
((rechassigned_1_26 0))
((rechassigned_1_27 0))
((rechassigned_1_28 0))
((rechassigned_1_29 0))
((rechassigned_1_30 2))
((rechassigned_1_31 2))
((rechassigned_1_32 0))
((rechassigned_1_33 0))
((rechassigned_1_34 0))
((rechassigned_1_35 0))
((rechassigned_1_36 0))
((rechassigned_1_37 0))
((rechassigned_1_38 0))
((rechassigned_1_39 0))
((rechassigned_1_40 0))
((rechassigned_2_1 0))
((rechassigned_2_2 0))
((rechassigned_2_3 0))
((rechassigned_2_4 0))
((rechassigned_2_5 0))
((rechassigned_2_6 0))
((rechassigned_2_7 0))
((rechassigned_2_8 0))
((rechassigned_2_9 2))
((rechassigned_2_10 0))
((rechassigned_2_11 0))
((rechassigned_2_12 0))
((rechassigned_2_13 0))
((rechassigned_2_14 0))
((rechassigned_2_15 0))
((rechassigned_2_16 0))
((rechassigned_2_17 0))
((rechassigned_2_18 0))
((rechassigned_2_19 0))
((rechassigned_2_20 0))
((rechassigned_2_21 0))
((rechassigned_2_22 0))
((rechassigned_2_23 1))
((rechassigned_2_24 0))
((rechassigned_2_25 0))
((rechassigned_2_26 0))
((rechassigned_2_27 0))
((rechassigned_2_28 0))
((rechassigned_2_29 0))
((rechassigned_2_30 0))
((rechassigned_2_31 0))
((rechassigned_2_32 0))
((rechassigned_2_33 2))
((rechassigned_2_34 2))
((rechassigned_2_35 0))
((rechassigned_2_36 0))
((rechassigned_2_37 0))
((rechassigned_2_38 0))
((rechassigned_2_39 0))
((rechassigned_2_40 0))
((rechassigned_3_1 0))
((rechassigned_3_2 0))
((rechassigned_3_3 0))
((rechassigned_3_4 0))
((rechassigned_3_5 0))
((rechassigned_3_6 0))
((rechassigned_3_7 1))
((rechassigned_3_8 0))
((rechassigned_3_9 0))
((rechassigned_3_10 0))
((rechassigned_3_11 0))
((rechassigned_3_12 2))
((rechassigned_3_13 0))
((rechassigned_3_14 0))
((rechassigned_3_15 0))
((rechassigned_3_16 0))
((rechassigned_3_17 1))
((rechassigned_3_18 0))
((rechassigned_3_19 0))
((rechassigned_3_20 0))
((rechassigned_3_21 0))
((rechassigned_3_22 0))
((rechassigned_3_23 0))
((rechassigned_3_24 0))
((rechassigned_3_25 0))
((rechassigned_3_26 0))
((rechassigned_3_27 0))
((rechassigned_3_28 0))
((rechassigned_3_29 0))
((rechassigned_3_30 0))
((rechassigned_3_31 0))
((rechassigned_3_32 0))
((rechassigned_3_33 0))
((rechassigned_3_34 0))
((rechassigned_3_35 0))
((rechassigned_3_36 0))
((rechassigned_3_37 0))
((rechassigned_3_38 2))
((rechassigned_3_39 2))
((rechassigned_3_40 0))
((rechassigned_4_1 0))
((rechassigned_4_2 0))
((rechassigned_4_3 0))
((rechassigned_4_4 0))
((rechassigned_4_5 0))
((rechassigned_4_6 2))
((rechassigned_4_7 0))
((rechassigned_4_8 0))
((rechassigned_4_9 0))
((rechassigned_4_10 0))
((rechassigned_4_11 0))
((rechassigned_4_12 0))
((rechassigned_4_13 0))
((rechassigned_4_14 0))
((rechassigned_4_15 2))
((rechassigned_4_16 0))
((rechassigned_4_17 0))
((rechassigned_4_18 0))
((rechassigned_4_19 0))
((rechassigned_4_20 0))
((rechassigned_4_21 0))
((rechassigned_4_22 0))
((rechassigned_4_23 0))
((rechassigned_4_24 0))
((rechassigned_4_25 0))
((rechassigned_4_26 0))
((rechassigned_4_27 1))
((rechassigned_4_28 0))
((rechassigned_4_29 0))
((rechassigned_4_30 1))
((rechassigned_4_31 1))
((rechassigned_4_32 0))
((rechassigned_4_33 0))
((rechassigned_4_34 0))
((rechassigned_4_35 0))
((rechassigned_4_36 0))
((rechassigned_4_37 0))
((rechassigned_4_38 0))
((rechassigned_4_39 0))
((rechassigned_4_40 0))
((rechassigned_5_1 0))
((rechassigned_5_2 1))
((rechassigned_5_3 0))
((rechassigned_5_4 0))
((rechassigned_5_5 0))
((rechassigned_5_6 0))
((rechassigned_5_7 0))
((rechassigned_5_8 0))
((rechassigned_5_9 0))
((rechassigned_5_10 1))
((rechassigned_5_11 0))
((rechassigned_5_12 0))
((rechassigned_5_13 0))
((rechassigned_5_14 0))
((rechassigned_5_15 0))
((rechassigned_5_16 0))
((rechassigned_5_17 0))
((rechassigned_5_18 0))
((rechassigned_5_19 0))
((rechassigned_5_20 2))
((rechassigned_5_21 0))
((rechassigned_5_22 0))
((rechassigned_5_23 0))
((rechassigned_5_24 2))
((rechassigned_5_25 0))
((rechassigned_5_26 0))
((rechassigned_5_27 0))
((rechassigned_5_28 0))
((rechassigned_5_29 0))
((rechassigned_5_30 0))
((rechassigned_5_31 0))
((rechassigned_5_32 0))
((rechassigned_5_33 0))
((rechassigned_5_34 0))
((rechassigned_5_35 0))
((rechassigned_5_36 0))
((rechassigned_5_37 0))
((rechassigned_5_38 1))
((rechassigned_5_39 1))
((rechassigned_5_40 0))
((rechassigned_6_1 0))
((rechassigned_6_2 0))
((rechassigned_6_3 0))
((rechassigned_6_4 0))
((rechassigned_6_5 0))
((rechassigned_6_6 0))
((rechassigned_6_7 0))
((rechassigned_6_8 0))
((rechassigned_6_9 0))
((rechassigned_6_10 0))
((rechassigned_6_11 0))
((rechassigned_6_12 0))
((rechassigned_6_13 1))
((rechassigned_6_14 1))
((rechassigned_6_15 0))
((rechassigned_6_16 0))
((rechassigned_6_17 0))
((rechassigned_6_18 0))
((rechassigned_6_19 0))
((rechassigned_6_20 0))
((rechassigned_6_21 0))
((rechassigned_6_22 0))
((rechassigned_6_23 0))
((rechassigned_6_24 0))
((rechassigned_6_25 0))
((rechassigned_6_26 0))
((rechassigned_6_27 0))
((rechassigned_6_28 0))
((rechassigned_6_29 0))
((rechassigned_6_30 0))
((rechassigned_6_31 0))
((rechassigned_6_32 0))
((rechassigned_6_33 0))
((rechassigned_6_34 1))
((rechassigned_6_35 1))
((rechassigned_6_36 0))
((rechassigned_6_37 0))
((rechassigned_6_38 0))
((rechassigned_6_39 0))
((rechassigned_6_40 0))
((total_rcost 0))
((lastrech_1_30 true))
((lastrech_1_31 false))
((lastrech_1_32 false))
((lastrech_1_33 false))
((lastrech_1_34 false))
((lastrech_1_35 false))
((lastrech_1_36 false))
((lastrech_1_37 false))
((lastrech_1_38 false))
((lastrech_2_30 false))
((lastrech_2_31 false))
((lastrech_2_32 false))
((lastrech_2_33 true))
((lastrech_2_34 false))
((lastrech_2_35 false))
((lastrech_2_36 false))
((lastrech_2_37 false))
((lastrech_2_38 false))
((lastrech_3_30 false))
((lastrech_3_31 false))
((lastrech_3_32 false))
((lastrech_3_33 false))
((lastrech_3_34 false))
((lastrech_3_35 false))
((lastrech_3_36 false))
((lastrech_3_37 false))
((lastrech_3_38 true))
((lastrech_4_30 true))
((lastrech_4_31 false))
((lastrech_4_32 false))
((lastrech_4_33 false))
((lastrech_4_34 false))
((lastrech_4_35 false))
((lastrech_4_36 false))
((lastrech_4_37 false))
((lastrech_4_38 false))
((lastrech_5_30 false))
((lastrech_5_31 false))
((lastrech_5_32 false))
((lastrech_5_33 false))
((lastrech_5_34 false))
((lastrech_5_35 false))
((lastrech_5_36 false))
((lastrech_5_37 false))
((lastrech_5_38 true))
((lastrech_6_30 false))
((lastrech_6_31 false))
((lastrech_6_32 false))
((lastrech_6_33 false))
((lastrech_6_34 true))
((lastrech_6_35 false))
((lastrech_6_36 false))
((lastrech_6_37 false))
((lastrech_6_38 false))
